NAME : kroD100-C-3-1-a__learnable_bias_same_priority_ls20__25488.tour
COMMENT : Length = 25488.000
COMMENT : Generated by evaluate_ctspd.py for learnable_bias_same_priority_ls20
TYPE : TOUR
DIMENSION : 100
TOUR_SECTION
70
49
98
97
32
94
17
90
11
89
22
58
29
42
23
8
52
66
38
34
81
27
24
88
79
13
1
50
41
84
69
15
63
54
91
77
43
39
73
71
4
93
44
60
53
62
35
30
48
2
100
51
37
19
92
5
64
16
96
86
85
59
40
3
83
6
18
25
20
9
55
87
26
10
95
56
21
28
12
47
82
65
14
68
33
45
99
57
31
78
80
76
72
61
7
75
67
36
74
46
-1
EOF
